p cnf 87 291
-1 -2 -3 0
1 2 -3 0
-1 2 3 0
1 -2 3 0
5 3 0
5 -4 0
-3 4 -5 0
-8 -6 0
-8 7 0
6 -7 8 0
9 8 0
9 6 0
-8 -6 -9 0
-8 7 -11 0
8 -7 -11 0
-8 -7 11 0
8 7 11 0
-10 -6 -12 0
10 6 -12 0
-10 6 12 0
10 -6 12 0
-13 -11 0
-13 -12 0
11 12 13 0
-10 13 -14 0
10 -13 -14 0
-10 -13 14 0
10 13 14 0
-15 9 0
-15 -14 0
-9 14 15 0
-16 -5 0
-16 -15 0
5 15 16 0
-17 -4 0
-17 -8 0
4 8 17 0
-18 17 0
-18 6 0
-17 -6 18 0
19 1 0
19 -7 0
-1 7 -19 0
-20 -19 0
-20 -12 0
19 12 20 0
-8 -4 -21 0
8 4 -21 0
-8 4 21 0
8 -4 21 0
-22 20 0
-22 21 0
-20 -21 22 0
23 12 0
23 -22 0
-12 22 -23 0
-18 23 -24 0
18 -23 -24 0
-18 -23 24 0
18 23 24 0
-25 21 0
-25 -10 0
-21 10 25 0
-19 1 -27 0
19 -1 -27 0
-19 -1 27 0
19 1 27 0
-18 -17 -28 0
18 17 -28 0
-18 17 28 0
18 -17 28 0
29 -27 0
29 28 0
27 -28 -29 0
-31 -29 0
-31 30 0
29 -30 31 0
32 26 0
32 -31 0
-26 31 -32 0
-33 32 0
-33 -5 0
-32 5 33 0
-34 4 0
-34 -3 0
-4 3 34 0
35 -23 0
35 34 0
23 -34 -35 0
35 -36 -37 0
-35 36 -37 0
35 36 37 0
-35 -36 37 0
33 -37 -38 0
-33 37 -38 0
33 37 38 0
-33 -37 38 0
-39 25 0
-39 38 0
-25 -38 39 0
40 24 0
40 -39 0
-24 39 -40 0
-42 41 0
-42 -21 0
-41 21 42 0
-40 42 -43 0
40 -42 -43 0
-40 -42 43 0
40 42 43 0
44 -3 0
44 6 0
3 -6 -44 0
44 -1 -45 0
-44 1 -45 0
44 1 45 0
-44 -1 45 0
46 11 0
46 -45 0
-11 45 -46 0
30 6 -47 0
-30 -6 -47 0
30 -6 47 0
-30 6 47 0
49 10 0
49 -48 0
-10 48 -49 0
50 26 0
50 -34 0
-26 34 -50 0
51 -50 0
51 -50 0
50 -51 0
52 -49 0
52 51 0
49 -51 -52 0
53 47 0
53 -52 0
-47 52 -53 0
-54 -6 0
-54 -4 0
6 4 54 0
-55 -53 0
-55 54 0
53 -54 55 0
-56 -46 0
-56 -55 0
46 55 56 0
-57 8 0
-57 13 0
-8 -13 57 0
44 6 -58 0
-44 -6 -58 0
44 -6 58 0
-44 6 58 0
-59 -11 0
-59 58 0
11 -58 59 0
-61 2 -62 0
61 -2 -62 0
-61 -2 62 0
61 2 62 0
63 -62 0
63 -41 0
62 41 -63 0
64 -60 0
64 -63 0
60 63 -64 0
65 -59 0
65 -64 0
59 64 -65 0
-66 57 0
-66 -65 0
-57 65 66 0
27 -9 -67 0
-27 9 -67 0
27 9 67 0
-27 -9 67 0
68 -45 0
68 67 0
45 -67 -68 0
69 -66 0
69 -68 0
66 68 -69 0
-70 -26 0
-70 41 0
26 -41 70 0
71 58 0
71 -70 0
-58 70 -71 0
69 71 -72 0
-69 -71 -72 0
69 -71 72 0
-69 71 72 0
-56 72 -73 0
56 -72 -73 0
-56 -72 73 0
56 72 73 0
-43 73 -74 0
43 -73 -74 0
-43 -73 74 0
43 73 74 0
-16 74 -75 0
16 -74 -75 0
-16 -74 75 0
16 74 75 0
76 -70 0
76 -45 0
70 45 -76 0
-77 3 -78 0
77 -3 -78 0
-77 -3 78 0
77 3 78 0
-79 -70 0
-79 78 0
70 -78 79 0
-80 -76 0
-80 -79 0
76 79 80 0
-81 17 0
-81 -27 0
-17 27 81 0
82 -3 0
82 -81 0
3 81 -82 0
-83 30 0
-83 -82 0
-30 82 83 0
80 83 -84 0
-80 -83 -84 0
80 -83 84 0
-80 83 84 0
-85 78 0
-85 -11 0
-78 11 85 0
86 -84 0
86 85 0
84 -85 -86 0
-75 86 -87 0
75 -86 -87 0
-75 -86 87 0
75 86 87 0
-65 -3 0
30 -43 26 -36 0
-27 64 17 41 -44 0
-31 -86 50 0
18 -36 86 2 50 0
22 -27 0
35 75 65 -63 -55 10 0
-76 -77 8 63 0
55 66 48 16 -68 -56 0
-68 2 -54 53 18 0
-14 13 0
38 46 9 60 73 0
81 55 65 -14 1 72 0
-25 23 0
47 -67 22 66 26 0
45 -7 73 0
-16 7 -51 0
-84 15 0
-82 -18 0
-34 -85 49 0
-56 0
-42 -53 0
-70 -59 67 18 -37 5 0
-49 51 20 -58 0
-16 34 9 0
13 -33 73 -6 -41 -65 0
12 -86 27 55 0
-27 -76 31 0
-60 23 -26 -28 17 -73 0
68 -74 32 -60 0
78 -84 -5 43 0
6 63 13 -75 0
-79 77 -54 24 12 0
-40 -47 45 0
-59 -29 24 76 7 43 0
87 -82 26 -14 0
42 -84 -24 12 48 -51 0
-59 72 -31 -68 70 -78 0
-48 78 10 0
-11 29 80 0
44 74 -83 68 0
-38 57 0
-10 -9 -28 84 0
82 70 62 51 0
85 76 -32 0
-69 16 18 -63 -45 0
-21 31 0
8 27 84 -74 -87 -16 0
87 0
